NAME: tsp_416
COMMENT: Random TSP instance
TYPE: TSP
DIMENSION: 50
EDGE_WEIGHT_TYPE: EUC_2D
NODE_COORD_SECTION
1 581 781
2 916 374
3 478 734
4 827 136
5 962 509
6 988 30
7 184 456
8 412 301
9 362 151
10 924 265
11 574 190
12 678 7
13 586 260
14 962 371
15 987 818
16 587 606
17 39 337
18 729 359
19 859 848
20 201 638
21 843 61
22 788 758
23 109 822
24 552 417
25 688 385
26 938 374
27 999 853
28 425 401
29 764 865
30 561 850
31 210 928
32 955 616
33 207 414
34 892 891
35 784 294
36 115 454
37 12 887
38 32 149
39 527 537
40 499 346
41 892 983
42 506 133
43 294 353
44 384 39
45 640 82
46 746 992
47 256 879
48 652 766
49 50 847
50 837 275
